attachment/milp/5-tsp/tsp.dat
data;

set Node_List :=
	P00 0 0
	P08 0 8
	P15 1 5
	P22 2 2
	P23 2 3
	P28 2 8
	P29 2 9
	P31 3 1
	P34 3 4
	P40 4 0
	P56 5 6
	P60 6 0
	P61 6 1
	P69 6 9
	P73 7 3
	P90 9 0
	P93 9 3
	P94 9 4
	P97 9 7
	;
param Start := P23;

end;
